c Reduced graph for r12 generated by Cyril Grelier
p edge 199 2055
e 1 2
e 1 3
e 1 5
e 1 8
e 1 9
e 1 10
e 1 11
e 1 12
e 1 15
e 1 26
e 1 27
e 1 28
e 1 40
e 1 43
e 1 48
e 1 49
e 1 50
e 1 51
e 1 59
e 1 82
e 1 91
e 1 109
e 1 122
e 1 125
e 1 137
e 2 4
e 2 7
e 2 8
e 2 9
e 2 10
e 2 11
e 2 14
e 2 26
e 2 27
e 2 28
e 2 42
e 2 45
e 2 47
e 2 48
e 2 49
e 2 50
e 2 51
e 2 55
e 2 77
e 2 92
e 2 124
e 2 137
e 2 153
e 2 154
e 3 4
e 3 5
e 3 12
e 3 15
e 3 17
e 3 18
e 3 19
e 3 20
e 3 21
e 3 36
e 3 37
e 3 40
e 3 43
e 3 59
e 3 60
e 3 61
e 3 62
e 3 63
e 3 64
e 3 82
e 3 91
e 3 109
e 3 122
e 3 125
e 4 7
e 4 14
e 4 17
e 4 18
e 4 19
e 4 20
e 4 21
e 4 36
e 4 37
e 4 42
e 4 45
e 4 47
e 4 55
e 4 60
e 4 61
e 4 62
e 4 63
e 4 64
e 4 77
e 4 92
e 4 124
e 4 153
e 4 154
e 5 6
e 5 7
e 5 12
e 5 15
e 5 22
e 5 23
e 5 24
e 5 25
e 5 38
e 5 39
e 5 40
e 5 43
e 5 59
e 5 65
e 5 66
e 5 67
e 5 68
e 5 82
e 5 91
e 5 109
e 5 122
e 5 125
e 5 151
e 6 7
e 6 13
e 6 16
e 6 22
e 6 23
e 6 24
e 6 25
e 6 38
e 6 39
e 6 41
e 6 44
e 6 46
e 6 54
e 6 65
e 6 66
e 6 67
e 6 68
e 6 76
e 6 83
e 6 110
e 6 123
e 6 126
e 6 151
e 6 152
e 7 14
e 7 22
e 7 23
e 7 24
e 7 25
e 7 38
e 7 39
e 7 42
e 7 45
e 7 47
e 7 55
e 7 65
e 7 66
e 7 67
e 7 68
e 7 77
e 7 92
e 7 124
e 7 151
e 7 153
e 7 154
e 8 9
e 8 10
e 8 11
e 8 17
e 8 22
e 8 26
e 8 27
e 8 28
e 8 29
e 8 33
e 8 48
e 8 49
e 8 50
e 8 51
e 8 69
e 8 73
e 8 97
e 8 105
e 8 137
e 8 139
e 8 155
e 8 158
e 9 10
e 9 11
e 9 18
e 9 23
e 9 26
e 9 27
e 9 28
e 9 30
e 9 34
e 9 48
e 9 49
e 9 50
e 9 51
e 9 70
e 9 78
e 9 88
e 9 107
e 9 114
e 9 137
e 9 156
e 9 159
e 10 11
e 10 20
e 10 24
e 10 26
e 10 27
e 10 28
e 10 32
e 10 48
e 10 49
e 10 50
e 10 51
e 10 75
e 10 80
e 10 89
e 10 99
e 10 108
e 10 137
e 10 140
e 10 176
e 10 179
e 11 21
e 11 25
e 11 26
e 11 27
e 11 28
e 11 48
e 11 49
e 11 50
e 11 51
e 11 72
e 11 81
e 11 90
e 11 100
e 11 116
e 11 137
e 11 141
e 11 157
e 11 177
e 11 180
e 12 13
e 12 14
e 12 15
e 12 29
e 12 30
e 12 31
e 12 32
e 12 40
e 12 43
e 12 52
e 12 53
e 12 59
e 12 82
e 12 84
e 12 85
e 12 86
e 12 87
e 12 91
e 12 109
e 12 122
e 12 125
e 13 14
e 13 16
e 13 29
e 13 30
e 13 31
e 13 32
e 13 41
e 13 44
e 13 46
e 13 52
e 13 53
e 13 54
e 13 76
e 13 83
e 13 84
e 13 85
e 13 86
e 13 87
e 13 110
e 13 123
e 13 126
e 13 152
e 14 29
e 14 30
e 14 31
e 14 32
e 14 42
e 14 45
e 14 47
e 14 52
e 14 53
e 14 55
e 14 77
e 14 84
e 14 85
e 14 86
e 14 87
e 14 92
e 14 124
e 14 153
e 14 154
e 15 16
e 15 33
e 15 34
e 15 35
e 15 40
e 15 43
e 15 56
e 15 57
e 15 58
e 15 59
e 15 82
e 15 91
e 15 93
e 15 94
e 15 95
e 15 96
e 15 109
e 15 122
e 15 125
e 15 174
e 16 33
e 16 34
e 16 35
e 16 41
e 16 44
e 16 46
e 16 54
e 16 56
e 16 57
e 16 58
e 16 76
e 16 83
e 16 93
e 16 94
e 16 95
e 16 96
e 16 110
e 16 123
e 16 126
e 16 152
e 16 174
e 17 18
e 17 19
e 17 20
e 17 21
e 17 22
e 17 29
e 17 33
e 17 36
e 17 37
e 17 60
e 17 61
e 17 62
e 17 63
e 17 64
e 17 69
e 17 73
e 17 97
e 17 105
e 17 139
e 17 155
e 17 158
e 18 19
e 18 20
e 18 21
e 18 23
e 18 30
e 18 34
e 18 36
e 18 37
e 18 60
e 18 61
e 18 62
e 18 63
e 18 64
e 18 70
e 18 78
e 18 88
e 18 107
e 18 114
e 18 156
e 18 159
e 19 20
e 19 21
e 19 31
e 19 35
e 19 36
e 19 37
e 19 60
e 19 61
e 19 62
e 19 63
e 19 64
e 19 71
e 19 74
e 19 79
e 19 98
e 19 106
e 19 115
e 19 160
e 19 175
e 19 178
e 20 21
e 20 24
e 20 32
e 20 36
e 20 37
e 20 60
e 20 61
e 20 62
e 20 63
e 20 64
e 20 75
e 20 80
e 20 89
e 20 99
e 20 108
e 20 140
e 20 176
e 20 179
e 21 25
e 21 36
e 21 37
e 21 60
e 21 61
e 21 62
e 21 63
e 21 64
e 21 72
e 21 81
e 21 90
e 21 100
e 21 116
e 21 141
e 21 157
e 21 177
e 21 180
e 22 23
e 22 24
e 22 25
e 22 29
e 22 33
e 22 38
e 22 39
e 22 65
e 22 66
e 22 67
e 22 68
e 22 69
e 22 73
e 22 97
e 22 105
e 22 139
e 22 151
e 22 155
e 22 158
e 23 24
e 23 25
e 23 30
e 23 34
e 23 38
e 23 39
e 23 65
e 23 66
e 23 67
e 23 68
e 23 70
e 23 78
e 23 88
e 23 107
e 23 114
e 23 151
e 23 156
e 23 159
e 24 25
e 24 32
e 24 38
e 24 39
e 24 65
e 24 66
e 24 67
e 24 68
e 24 75
e 24 80
e 24 89
e 24 99
e 24 108
e 24 140
e 24 151
e 24 176
e 24 179
e 25 38
e 25 39
e 25 65
e 25 66
e 25 67
e 25 68
e 25 72
e 25 81
e 25 90
e 25 100
e 25 116
e 25 141
e 25 151
e 25 157
e 25 177
e 25 180
e 26 27
e 26 28
e 26 48
e 26 49
e 26 50
e 26 51
e 26 52
e 26 56
e 26 103
e 26 111
e 26 117
e 26 131
e 26 137
e 26 145
e 26 170
e 26 181
e 26 185
e 27 28
e 27 36
e 27 38
e 27 48
e 27 49
e 27 50
e 27 51
e 27 57
e 27 101
e 27 104
e 27 112
e 27 118
e 27 137
e 27 138
e 27 146
e 27 182
e 28 37
e 28 39
e 28 48
e 28 49
e 28 50
e 28 51
e 28 53
e 28 58
e 28 102
e 28 113
e 28 119
e 28 137
e 28 147
e 28 171
e 28 187
e 29 30
e 29 31
e 29 32
e 29 33
e 29 52
e 29 53
e 29 69
e 29 73
e 29 84
e 29 85
e 29 86
e 29 87
e 29 97
e 29 105
e 29 139
e 29 155
e 29 158
e 30 31
e 30 32
e 30 34
e 30 52
e 30 53
e 30 70
e 30 78
e 30 84
e 30 85
e 30 86
e 30 87
e 30 88
e 30 107
e 30 114
e 30 156
e 30 159
e 31 32
e 31 35
e 31 52
e 31 53
e 31 71
e 31 74
e 31 79
e 31 84
e 31 85
e 31 86
e 31 87
e 31 98
e 31 106
e 31 115
e 31 160
e 31 175
e 31 178
e 32 52
e 32 53
e 32 75
e 32 80
e 32 84
e 32 85
e 32 86
e 32 87
e 32 89
e 32 99
e 32 108
e 32 140
e 32 176
e 32 179
e 33 34
e 33 35
e 33 56
e 33 57
e 33 58
e 33 69
e 33 73
e 33 93
e 33 94
e 33 95
e 33 96
e 33 97
e 33 105
e 33 139
e 33 155
e 33 158
e 33 174
e 34 35
e 34 56
e 34 57
e 34 58
e 34 70
e 34 78
e 34 88
e 34 93
e 34 94
e 34 95
e 34 96
e 34 107
e 34 114
e 34 156
e 34 159
e 34 174
e 35 56
e 35 57
e 35 58
e 35 71
e 35 74
e 35 79
e 35 93
e 35 94
e 35 95
e 35 96
e 35 98
e 35 106
e 35 115
e 35 160
e 35 174
e 35 175
e 35 178
e 36 37
e 36 38
e 36 57
e 36 60
e 36 61
e 36 62
e 36 63
e 36 64
e 36 101
e 36 104
e 36 112
e 36 118
e 36 138
e 36 146
e 36 182
e 37 39
e 37 53
e 37 58
e 37 60
e 37 61
e 37 62
e 37 63
e 37 64
e 37 102
e 37 113
e 37 119
e 37 147
e 37 171
e 37 187
e 38 39
e 38 57
e 38 65
e 38 66
e 38 67
e 38 68
e 38 101
e 38 104
e 38 112
e 38 118
e 38 138
e 38 146
e 38 151
e 38 182
e 39 53
e 39 58
e 39 65
e 39 66
e 39 67
e 39 68
e 39 102
e 39 113
e 39 119
e 39 147
e 39 151
e 39 171
e 39 187
e 40 41
e 40 42
e 40 43
e 40 59
e 40 69
e 40 70
e 40 71
e 40 72
e 40 82
e 40 91
e 40 101
e 40 102
e 40 109
e 40 120
e 40 121
e 40 122
e 40 125
e 40 186
e 41 42
e 41 44
e 41 46
e 41 54
e 41 69
e 41 70
e 41 71
e 41 72
e 41 76
e 41 83
e 41 101
e 41 102
e 41 110
e 41 120
e 41 121
e 41 123
e 41 126
e 41 152
e 41 186
e 42 45
e 42 47
e 42 55
e 42 69
e 42 70
e 42 71
e 42 72
e 42 77
e 42 92
e 42 101
e 42 102
e 42 120
e 42 121
e 42 124
e 42 153
e 42 154
e 42 186
e 43 44
e 43 45
e 43 59
e 43 73
e 43 74
e 43 75
e 43 82
e 43 91
e 43 103
e 43 104
e 43 109
e 43 122
e 43 125
e 43 127
e 43 128
e 43 129
e 43 130
e 44 45
e 44 46
e 44 54
e 44 73
e 44 74
e 44 75
e 44 76
e 44 83
e 44 103
e 44 104
e 44 110
e 44 123
e 44 126
e 44 127
e 44 128
e 44 129
e 44 130
e 44 152
e 45 47
e 45 55
e 45 73
e 45 74
e 45 75
e 45 77
e 45 92
e 45 103
e 45 104
e 45 124
e 45 127
e 45 128
e 45 129
e 45 130
e 45 153
e 45 154
e 46 47
e 46 54
e 46 76
e 46 78
e 46 79
e 46 80
e 46 81
e 46 83
e 46 110
e 46 123
e 46 126
e 46 132
e 46 133
e 46 134
e 46 135
e 46 136
e 46 152
e 47 55
e 47 77
e 47 78
e 47 79
e 47 80
e 47 81
e 47 92
e 47 124
e 47 132
e 47 133
e 47 134
e 47 135
e 47 136
e 47 153
e 47 154
e 48 49
e 48 50
e 48 51
e 48 60
e 48 93
e 48 120
e 48 127
e 48 132
e 48 137
e 48 161
e 48 183
e 48 188
e 48 191
e 49 50
e 49 51
e 49 62
e 49 66
e 49 95
e 49 137
e 49 143
e 49 149
e 49 164
e 49 167
e 49 172
e 49 190
e 50 51
e 50 63
e 50 67
e 50 86
e 50 96
e 50 130
e 50 135
e 50 137
e 50 150
e 50 165
e 50 168
e 51 64
e 51 68
e 51 87
e 51 121
e 51 136
e 51 137
e 51 144
e 51 169
e 51 173
e 51 196
e 52 53
e 52 56
e 52 84
e 52 85
e 52 86
e 52 87
e 52 103
e 52 111
e 52 117
e 52 131
e 52 145
e 52 170
e 52 181
e 52 185
e 53 58
e 53 84
e 53 85
e 53 86
e 53 87
e 53 102
e 53 113
e 53 119
e 53 147
e 53 171
e 53 187
e 54 55
e 54 76
e 54 83
e 54 88
e 54 89
e 54 90
e 54 110
e 54 111
e 54 112
e 54 113
e 54 123
e 54 126
e 54 142
e 54 143
e 54 144
e 54 152
e 55 77
e 55 88
e 55 89
e 55 90
e 55 92
e 55 111
e 55 112
e 55 113
e 55 124
e 55 142
e 55 143
e 55 144
e 55 153
e 55 154
e 56 57
e 56 58
e 56 93
e 56 94
e 56 95
e 56 96
e 56 103
e 56 111
e 56 117
e 56 131
e 56 145
e 56 170
e 56 174
e 56 181
e 56 185
e 57 58
e 57 93
e 57 94
e 57 95
e 57 96
e 57 101
e 57 104
e 57 112
e 57 118
e 57 138
e 57 146
e 57 174
e 57 182
e 58 93
e 58 94
e 58 95
e 58 96
e 58 102
e 58 113
e 58 119
e 58 147
e 58 171
e 58 174
e 58 187
e 59 82
e 59 91
e 59 97
e 59 98
e 59 99
e 59 100
e 59 109
e 59 117
e 59 118
e 59 119
e 59 122
e 59 125
e 59 148
e 59 149
e 59 150
e 60 61
e 60 62
e 60 63
e 60 64
e 60 93
e 60 120
e 60 127
e 60 132
e 60 161
e 60 183
e 60 188
e 60 191
e 61 62
e 61 63
e 61 64
e 61 65
e 61 84
e 61 128
e 61 133
e 61 148
e 61 162
e 61 184
e 61 193
e 61 195
e 62 63
e 62 64
e 62 66
e 62 95
e 62 143
e 62 149
e 62 164
e 62 167
e 62 172
e 62 190
e 63 64
e 63 67
e 63 86
e 63 96
e 63 130
e 63 135
e 63 150
e 63 165
e 63 168
e 64 68
e 64 87
e 64 121
e 64 136
e 64 144
e 64 169
e 64 173
e 64 196
e 65 66
e 65 67
e 65 68
e 65 84
e 65 128
e 65 133
e 65 148
e 65 151
e 65 162
e 65 184
e 65 193
e 65 195
e 66 67
e 66 68
e 66 95
e 66 143
e 66 149
e 66 151
e 66 164
e 66 167
e 66 172
e 66 190
e 67 68
e 67 86
e 67 96
e 67 130
e 67 135
e 67 150
e 67 151
e 67 165
e 67 168
e 68 87
e 68 121
e 68 136
e 68 144
e 68 151
e 68 169
e 68 173
e 68 196
e 69 70
e 69 71
e 69 72
e 69 73
e 69 97
e 69 101
e 69 102
e 69 105
e 69 120
e 69 121
e 69 139
e 69 155
e 69 158
e 69 186
e 70 71
e 70 72
e 70 78
e 70 88
e 70 101
e 70 102
e 70 107
e 70 114
e 70 120
e 70 121
e 70 156
e 70 159
e 70 186
e 71 72
e 71 74
e 71 79
e 71 98
e 71 101
e 71 102
e 71 106
e 71 115
e 71 120
e 71 121
e 71 160
e 71 175
e 71 178
e 71 186
e 72 81
e 72 90
e 72 100
e 72 101
e 72 102
e 72 116
e 72 120
e 72 121
e 72 141
e 72 157
e 72 177
e 72 180
e 72 186
e 73 74
e 73 75
e 73 97
e 73 103
e 73 104
e 73 105
e 73 127
e 73 128
e 73 129
e 73 130
e 73 139
e 73 155
e 73 158
e 74 75
e 74 79
e 74 98
e 74 103
e 74 104
e 74 106
e 74 115
e 74 127
e 74 128
e 74 129
e 74 130
e 74 160
e 74 175
e 74 178
e 75 80
e 75 89
e 75 99
e 75 103
e 75 104
e 75 108
e 75 127
e 75 128
e 75 129
e 75 130
e 75 140
e 75 176
e 75 179
e 76 77
e 76 83
e 76 105
e 76 106
e 76 110
e 76 123
e 76 126
e 76 131
e 76 152
e 76 161
e 76 162
e 76 163
e 76 164
e 76 165
e 76 197
e 77 92
e 77 105
e 77 106
e 77 124
e 77 131
e 77 153
e 77 154
e 77 161
e 77 162
e 77 163
e 77 164
e 77 165
e 77 197
e 78 79
e 78 80
e 78 81
e 78 88
e 78 107
e 78 114
e 78 132
e 78 133
e 78 134
e 78 135
e 78 136
e 78 156
e 78 159
e 79 80
e 79 81
e 79 98
e 79 106
e 79 115
e 79 132
e 79 133
e 79 134
e 79 135
e 79 136
e 79 160
e 79 175
e 79 178
e 80 81
e 80 89
e 80 99
e 80 108
e 80 132
e 80 133
e 80 134
e 80 135
e 80 136
e 80 140
e 80 176
e 80 179
e 81 90
e 81 100
e 81 116
e 81 132
e 81 133
e 81 134
e 81 135
e 81 136
e 81 141
e 81 157
e 81 177
e 81 180
e 82 83
e 82 91
e 82 107
e 82 108
e 82 109
e 82 122
e 82 125
e 82 138
e 82 166
e 82 167
e 82 168
e 82 169
e 82 198
e 83 107
e 83 108
e 83 110
e 83 123
e 83 126
e 83 138
e 83 152
e 83 166
e 83 167
e 83 168
e 83 169
e 83 198
e 84 85
e 84 86
e 84 87
e 84 128
e 84 133
e 84 148
e 84 162
e 84 184
e 84 193
e 84 195
e 85 86
e 85 87
e 85 94
e 85 129
e 85 134
e 85 142
e 85 163
e 85 166
e 85 189
e 85 192
e 85 194
e 86 87
e 86 96
e 86 130
e 86 135
e 86 150
e 86 165
e 86 168
e 87 121
e 87 136
e 87 144
e 87 169
e 87 173
e 87 196
e 88 89
e 88 90
e 88 107
e 88 111
e 88 112
e 88 113
e 88 114
e 88 142
e 88 143
e 88 144
e 88 156
e 88 159
e 89 90
e 89 99
e 89 108
e 89 111
e 89 112
e 89 113
e 89 140
e 89 142
e 89 143
e 89 144
e 89 176
e 89 179
e 90 100
e 90 111
e 90 112
e 90 113
e 90 116
e 90 141
e 90 142
e 90 143
e 90 144
e 90 157
e 90 177
e 90 180
e 91 92
e 91 109
e 91 114
e 91 115
e 91 116
e 91 122
e 91 125
e 91 145
e 91 146
e 91 147
e 91 172
e 91 173
e 92 114
e 92 115
e 92 116
e 92 124
e 92 145
e 92 146
e 92 147
e 92 153
e 92 154
e 92 172
e 92 173
e 93 94
e 93 95
e 93 96
e 93 120
e 93 127
e 93 132
e 93 161
e 93 174
e 93 183
e 93 188
e 93 191
e 94 95
e 94 96
e 94 129
e 94 134
e 94 142
e 94 163
e 94 166
e 94 174
e 94 189
e 94 192
e 94 194
e 95 96
e 95 143
e 95 149
e 95 164
e 95 167
e 95 172
e 95 174
e 95 190
e 96 130
e 96 135
e 96 150
e 96 165
e 96 168
e 96 174
e 97 98
e 97 99
e 97 100
e 97 105
e 97 117
e 97 118
e 97 119
e 97 139
e 97 148
e 97 149
e 97 150
e 97 155
e 97 158
e 98 99
e 98 100
e 98 106
e 98 115
e 98 117
e 98 118
e 98 119
e 98 148
e 98 149
e 98 150
e 98 160
e 98 175
e 98 178
e 99 100
e 99 108
e 99 117
e 99 118
e 99 119
e 99 140
e 99 148
e 99 149
e 99 150
e 99 176
e 99 179
e 100 116
e 100 117
e 100 118
e 100 119
e 100 141
e 100 148
e 100 149
e 100 150
e 100 157
e 100 177
e 100 180
e 101 102
e 101 104
e 101 112
e 101 118
e 101 120
e 101 121
e 101 138
e 101 146
e 101 182
e 101 186
e 102 113
e 102 119
e 102 120
e 102 121
e 102 147
e 102 171
e 102 186
e 102 187
e 103 104
e 103 111
e 103 117
e 103 127
e 103 128
e 103 129
e 103 130
e 103 131
e 103 145
e 103 170
e 103 181
e 103 185
e 104 112
e 104 118
e 104 127
e 104 128
e 104 129
e 104 130
e 104 138
e 104 146
e 104 182
e 105 106
e 105 131
e 105 139
e 105 155
e 105 158
e 105 161
e 105 162
e 105 163
e 105 164
e 105 165
e 105 197
e 106 115
e 106 131
e 106 160
e 106 161
e 106 162
e 106 163
e 106 164
e 106 165
e 106 175
e 106 178
e 106 197
e 107 108
e 107 114
e 107 138
e 107 156
e 107 159
e 107 166
e 107 167
e 107 168
e 107 169
e 107 198
e 108 138
e 108 140
e 108 166
e 108 167
e 108 168
e 108 169
e 108 176
e 108 179
e 108 198
e 109 110
e 109 122
e 109 125
e 109 139
e 109 140
e 109 141
e 109 170
e 109 171
e 109 183
e 109 184
e 110 123
e 110 126
e 110 139
e 110 140
e 110 141
e 110 152
e 110 170
e 110 171
e 110 183
e 110 184
e 111 112
e 111 113
e 111 117
e 111 131
e 111 142
e 111 143
e 111 144
e 111 145
e 111 170
e 111 181
e 111 185
e 112 113
e 112 118
e 112 138
e 112 142
e 112 143
e 112 144
e 112 146
e 112 182
e 113 119
e 113 142
e 113 143
e 113 144
e 113 147
e 113 171
e 113 187
e 114 115
e 114 116
e 114 145
e 114 146
e 114 147
e 114 156
e 114 159
e 114 172
e 114 173
e 115 116
e 115 145
e 115 146
e 115 147
e 115 160
e 115 172
e 115 173
e 115 175
e 115 178
e 116 141
e 116 145
e 116 146
e 116 147
e 116 157
e 116 172
e 116 173
e 116 177
e 116 180
e 117 118
e 117 119
e 117 131
e 117 145
e 117 148
e 117 149
e 117 150
e 117 170
e 117 181
e 117 185
e 118 119
e 118 138
e 118 146
e 118 148
e 118 149
e 118 150
e 118 182
e 119 147
e 119 148
e 119 149
e 119 150
e 119 171
e 119 187
e 120 121
e 120 127
e 120 132
e 120 161
e 120 183
e 120 186
e 120 188
e 120 191
e 121 136
e 121 144
e 121 169
e 121 173
e 121 186
e 121 196
e 122 123
e 122 124
e 122 125
e 122 155
e 122 156
e 122 157
e 122 188
e 122 189
e 122 190
e 123 124
e 123 126
e 123 152
e 123 155
e 123 156
e 123 157
e 123 188
e 123 189
e 123 190
e 124 153
e 124 154
e 124 155
e 124 156
e 124 157
e 124 188
e 124 189
e 124 190
e 125 126
e 125 158
e 125 159
e 125 160
e 125 181
e 125 182
e 125 191
e 125 192
e 126 152
e 126 158
e 126 159
e 126 160
e 126 181
e 126 182
e 126 191
e 126 192
e 127 128
e 127 129
e 127 130
e 127 132
e 127 161
e 127 183
e 127 188
e 127 191
e 128 129
e 128 130
e 128 133
e 128 148
e 128 162
e 128 184
e 128 193
e 128 195
e 129 130
e 129 134
e 129 142
e 129 163
e 129 166
e 129 189
e 129 192
e 129 194
e 130 135
e 130 150
e 130 165
e 130 168
e 131 145
e 131 161
e 131 162
e 131 163
e 131 164
e 131 165
e 131 170
e 131 181
e 131 185
e 131 197
e 132 133
e 132 134
e 132 135
e 132 136
e 132 161
e 132 183
e 132 188
e 132 191
e 133 134
e 133 135
e 133 136
e 133 148
e 133 162
e 133 184
e 133 193
e 133 195
e 134 135
e 134 136
e 134 142
e 134 163
e 134 166
e 134 189
e 134 192
e 134 194
e 135 136
e 135 150
e 135 165
e 135 168
e 136 144
e 136 169
e 136 173
e 136 196
e 137 151
e 137 174
e 137 186
e 137 197
e 137 198
e 137 199
e 138 146
e 138 166
e 138 167
e 138 168
e 138 169
e 138 182
e 138 198
e 139 140
e 139 141
e 139 155
e 139 158
e 139 170
e 139 171
e 139 183
e 139 184
e 140 141
e 140 170
e 140 171
e 140 176
e 140 179
e 140 183
e 140 184
e 141 157
e 141 170
e 141 171
e 141 177
e 141 180
e 141 183
e 141 184
e 142 143
e 142 144
e 142 163
e 142 166
e 142 189
e 142 192
e 142 194
e 143 144
e 143 149
e 143 164
e 143 167
e 143 172
e 143 190
e 144 169
e 144 173
e 144 196
e 145 146
e 145 147
e 145 170
e 145 172
e 145 173
e 145 181
e 145 185
e 146 147
e 146 172
e 146 173
e 146 182
e 147 171
e 147 172
e 147 173
e 147 187
e 148 149
e 148 150
e 148 162
e 148 184
e 148 193
e 148 195
e 149 150
e 149 164
e 149 167
e 149 172
e 149 190
e 150 165
e 150 168
e 151 174
e 151 186
e 151 197
e 151 198
e 151 199
e 152 153
e 152 175
e 152 176
e 152 177
e 152 185
e 152 193
e 152 194
e 153 154
e 153 175
e 153 176
e 153 177
e 153 185
e 153 193
e 153 194
e 154 178
e 154 179
e 154 180
e 154 187
e 154 195
e 154 196
e 154 199
e 155 156
e 155 157
e 155 158
e 155 188
e 155 189
e 155 190
e 156 157
e 156 159
e 156 188
e 156 189
e 156 190
e 157 177
e 157 180
e 157 188
e 157 189
e 157 190
e 158 159
e 158 160
e 158 181
e 158 182
e 158 191
e 158 192
e 159 160
e 159 181
e 159 182
e 159 191
e 159 192
e 160 175
e 160 178
e 160 181
e 160 182
e 160 191
e 160 192
e 161 162
e 161 163
e 161 164
e 161 165
e 161 183
e 161 188
e 161 191
e 161 197
e 162 163
e 162 164
e 162 165
e 162 184
e 162 193
e 162 195
e 162 197
e 163 164
e 163 165
e 163 166
e 163 189
e 163 192
e 163 194
e 163 197
e 164 165
e 164 167
e 164 172
e 164 190
e 164 197
e 165 168
e 165 197
e 166 167
e 166 168
e 166 169
e 166 189
e 166 192
e 166 194
e 166 198
e 167 168
e 167 169
e 167 172
e 167 190
e 167 198
e 168 169
e 168 198
e 169 173
e 169 196
e 169 198
e 170 171
e 170 181
e 170 183
e 170 184
e 170 185
e 171 183
e 171 184
e 171 187
e 172 173
e 172 190
e 173 196
e 174 186
e 174 197
e 174 198
e 174 199
e 175 176
e 175 177
e 175 178
e 175 185
e 175 193
e 175 194
e 176 177
e 176 179
e 176 185
e 176 193
e 176 194
e 177 180
e 177 185
e 177 193
e 177 194
e 178 179
e 178 180
e 178 187
e 178 195
e 178 196
e 178 199
e 179 180
e 179 187
e 179 195
e 179 196
e 179 199
e 180 187
e 180 195
e 180 196
e 180 199
e 181 182
e 181 185
e 181 191
e 181 192
e 182 191
e 182 192
e 183 184
e 183 188
e 183 191
e 184 193
e 184 195
e 185 193
e 185 194
e 186 197
e 186 198
e 186 199
e 187 195
e 187 196
e 187 199
e 188 189
e 188 190
e 188 191
e 189 190
e 189 192
e 189 194
e 191 192
e 192 194
e 193 194
e 193 195
e 195 196
e 195 199
e 196 199
e 197 198
e 197 199
e 198 199
